(set-option :print-success false)
(set-logic QF_UF)
(declare-sort x60 0)
(declare-sort x6 0)
(declare-fun x10 () x6)
(declare-fun x89 () x6)
(declare-fun x37 (x6 x6) x6)
(declare-fun x32 () x6)
(declare-fun x45 () x6)
(declare-fun x113 (x6 x6) x6)
(declare-fun x75 () x6)
(assert (let ((x20 (x113 x75 x32)) (x25 (x113 x32 x75)) (x57 (x113 x32 x89)) (x52 (x113 x32 x32)) (x59 (x113 x10 x89)) (x148 (x113 x10 x32)) (x13 (x113 x45 x45)) (x62 (x113 x45 x10)) (x83 (x113 x10 x75)) (x134 (x113 x75 x45)) (x109 (x113 x10 x10)) (x53 (x113 x75 x89)) (x69 (x113 x10 x45)) (x159 (x113 x89 x10)) (x150 (x113 x89 x89)) (x131 (x113 x89 x32)) (x124 (x113 x89 x45)) (x88 (x113 x32 x45)) (x104 (x113 x45 x32)) (x145 (x113 x75 x10)) (x80 (x113 x32 x10)) (x117 (x113 x89 x75)) (x128 (x113 x75 x75)) (x71 (x113 x45 x89)) (x16 (x113 x45 x75))) (let ((x70 (= x89 x128)) (x82 (= x32 x71)) (x22 (= x89 x13)) (x49 (= x32 x83)) (x68 (= x83 x10)) (x36 (= x80 x32)) (x27 (= x20 x45)) (x41 (= x10 x134)) (x157 (= x62 x45)) (x34 (= x117 x10)) (x9 (= x20 x89)) (x100 (= x75 x52)) (x84 (= x10 x131)) (x39 (= x104 x45)) (x38 (= x159 x75)) (x137 (= x89 x134)) (x85 (= x89 x71)) (x136 (= x89 x88)) (x90 (= x32 x150)) (x110 (= x45 x131)) (x14 (= x75 x150)) (x28 (= x75 x13)) (x107 (= x32 x53)) (x144 (= x89 x104)) (x149 (= x134 x75)) (x33 (= x71 x75)) (x2 (= x75 x57)) (x21 (= x75 x20)) (x121 (= x53 x45)) (x65 (= x128 x75)) (x119 (= x59 x10)) (x74 (= x104 x10)) (x72 (= x45 x128)) (x3 (= x53 x89)) (x29 (= x117 x89)) (x63 (= x148 x89)) (x138 (= x16 x32)) (x99 (= x10 x124)) (x7 (= x69 x10)) (x91 (= x75 x88)) (x156 (= x71 x10)) (x77 (= x131 x75)) (x122 (= x10 x109)) (x132 (= x25 x75)) (x154 (= x131 x32)) (x26 (= x148 x75)) (x87 (= x10 x52)) (x54 (= x10 x62)) (x152 (= x89 x16)) (x73 (= x25 x32)) (x5 (= x134 x32)) (x46 (= x75 x104)) (x98 (= x45 x69)) (x101 (= x13 x32)) (x146 (= x45 x124)) (x116 (= x150 x45)) (x51 (= x89 x150)) (x81 (= x145 x10)) (x94 (= x89 x59)) (x1 (= x71 x45)) (x111 (= x128 x10)) (x19 (= x88 x10)) (x47 (= x134 x45)) (x135 (= x80 x75)) (x35 (= x16 x10)) (x139 (= x83 x45)) (x55 (= x10 x150)) (x67 (= x117 x45)) (x76 (= x109 x45)) (x11 (= x20 x32)) (x58 (= x69 x32)) (x147 (= x89 x52)) (x120 (= x89 x109)) (x17 (= x59 x45)) (x129 (= x10 x80)) (x43 (= x159 x89)) (x96 (= x45 x25)) (x108 (= x57 x10)) (x155 (= x75 x83)) (x95 (= x10 x53)) (x103 (= x117 x75)) (x142 (= x89 x124)) (x93 (= x45 x145)) (x8 (= x45 x159)) (x153 (= x25 x89)) (x97 (= x124 x32)) (x106 (= x32 x109)) (x61 (= x10 x25)) (x4 (= x32 x159)) (x158 (= x57 x45)) (x105 (= x32 x104)) (x18 (= x89 x80)) (x78 (= x75 x16)) (x15 (= x45 x148)) (x31 (= x62 x75)) (x64 (= x13 x10)) (x114 (= x148 x32)) (x50 (= x69 x75)) (x40 (= x62 x89)) (x44 (= x75 x109)) (x130 (= x20 x10)) (x66 (= x69 x89)) (x86 (= x32 x145)) (x126 (= x10 x148)) (x151 (= x13 x45)) (x127 (= x32 x117)) (x102 (= x75 x124)) (x92 (= x59 x75)) (x118 (= x57 x89)) (x30 (= x32 x52)) (x56 (= x32 x57)) (x140 (= x52 x45)) (x23 (= x89 x145)) (x141 (= x45 x80)) (x125 (= x45 x88)) (x24 (= x89 x131)) (x79 (= x75 x145)) (x133 (= x16 x45)) (x123 (= x128 x32)) (x112 (= x32 x88)) (x12 (= x62 x32)) (x48 (= x10 x159)) (x42 (= x59 x32)) (x143 (= x53 x75)) (x115 (= x83 x89))) (and (and (and (and (and (and (and (or (or (or x40 (or x23 x120)) x43) x18) (or (or (or x66 (or x115 x120)) x94) x63)) (and (and (or (or x17 (or (or x139 x76) x98)) x15) (or (or x8 (or (or x76 x93) x157)) x141)) (and (and (or x26 (or x92 (or (or x44 x155) x50))) (or (or (or (or x44 x79) x31) x38) x135)) (and (or (or x48 (or x54 (or x81 x122))) x129) (or (or x119 (or (or x68 x122) x7)) x126))))) (and (or (or (or x58 (or x106 x49)) x42) x114) (or (or x4 (or (or x86 x106) x12)) x36))) (and (and (or (or x107 (or x5 (or x123 x86))) x11) (or (or (or (or x49 x123) x138) x127) x73)) (and (and (and (or (or x67 (or (or x72 x139) x133)) x96) (or (or (or (or x72 x93) x47) x121) x27)) (and (and (or (or (or x35 (or x68 x111)) x34) x61) (or (or (or x41 (or x81 x111)) x95) x130)) (and (or x21 (or x143 (or x149 (or x65 x79)))) (or x132 (or (or x78 (or x65 x155)) x103))))) (and (or x9 (or x3 (or (or x23 x70) x137))) (or x153 (or (or (or x70 x115) x152) x29)))))) (and (and (or (or (or x101 (or x5 x58)) x97) x112) (or (or x82 (or (or x138 x12) x101)) x105)) (and (and (and (and (or (or x102 (or (or x50 x149) x28)) x91) (or (or (or x28 (or x31 x78)) x33) x46)) (and (or x19 (or (or (or x7 x41) x64) x99)) (or (or (or (or x35 x54) x64) x156) x74))) (and (or x39 (or (or (or x133 x157) x151) x1)) (or (or x146 (or (or x98 x47) x151)) x125))) (and (or (or (or (or x66 x137) x22) x142) x136) (or (or (or x22 (or x40 x152)) x85) x144))))) (and (and (or (or (or x97 (or x127 x4)) x90) x154) (or x56 (or x90 (or (or x42 x107) x82)))) (and (and (and (or x110 (or x116 (or x146 (or x67 x8)))) (or (or (or x1 (or x17 x121)) x116) x158)) (and (and (or x77 (or x14 (or (or x38 x103) x102))) (or (or x14 (or x33 (or x143 x92))) x2)) (and (or x84 (or x55 (or x99 (or x48 x34)))) (or x108 (or (or x156 (or x119 x95)) x55))))) (and (or (or (or x142 (or x29 x43)) x51) x24) (or x118 (or x51 (or x85 (or x94 x3)))))))) (and (and (or x30 (or (or (or x11 x114) x105) x154)) (or x30 (or x56 (or (or x36 x73) x112)))) (and (and (or (or (or (or x18 x153) x136) x118) x147) (or x147 (or x24 (or (or x63 x9) x144)))) (and (and (or x140 (or (or (or x27 x15) x39) x110)) (or (or (or (or x96 x141) x125) x158) x140)) (and (and (or x87 (or (or (or x126 x130) x74) x84)) (or x87 (or (or x19 (or x61 x129)) x108))) (and (or (or (or (or x21 x26) x46) x77) x100) (or (or x2 (or x91 (or x135 x132))) x100))))))))))
(assert (and (and (= x89 (x113 x10 x45)) (and (= (x113 x45 x75) x10) (= x75 (x113 x45 x45)))) (= x32 (x113 x45 x10))))
(assert (let ((x62 (x113 x45 x45)) (x76 (x113 x89 x75)) (x68 (x113 x89 x89)) (x83 (x113 x10 x75)) (x120 (x113 x75 x89)) (x81 (x113 x45 x89)) (x148 (x113 x10 x45)) (x111 (x113 x32 x10)) (x65 (x113 x89 x32)) (x109 (x113 x75 x10)) (x159 (x113 x89 x10)) (x69 (x113 x75 x75)) (x16 (x113 x32 x32)) (x122 (x113 x10 x10)) (x80 (x113 x10 x89)) (x128 (x113 x32 x75)) (x134 (x113 x75 x32)) (x53 (x113 x32 x45)) (x79 (x113 x10 x32)) (x106 (x113 x89 x45)) (x59 (x113 x45 x10)) (x155 (x113 x32 x89)) (x20 (x113 x45 x32)) (x44 (x113 x45 x75)) (x145 (x113 x75 x45))) (or (or (or (or (and (and (and (= x145 x44) (and (= x69 x69) (= x83 x109))) (= x120 x76)) (= x128 x134)) (and (and (and (and (= x109 x83) (= x122 x122)) (= x59 x148)) (= x80 x159)) (= x79 x111))) (and (and (= x106 x81) (and (= x62 x62) (and (= x59 x148) (= x145 x44)))) (= x20 x53))) (and (and (and (and (= x80 x159) (= x76 x120)) (= x81 x106)) (= x68 x68)) (= x155 x65))) (and (and (= x65 x155) (and (= x53 x20) (and (= x111 x79) (= x134 x128)))) (= x16 x16)))))
(assert (or (or (and (and (not (= x89 (x113 (x113 x89 x89) x89))) (and (not (= (x113 (x113 x89 x45) x89) x45)) (and (not (= x75 (x113 (x113 x89 x75) x89))) (not (= x10 (x113 (x113 x89 x10) x89)))))) (not (= (x113 (x113 x89 x32) x89) x32))) (or (and (not (= x32 (x113 (x113 x45 x32) x45))) (and (not (= (x113 (x113 x45 x89) x45) x89)) (and (not (= (x113 (x113 x45 x45) x45) x45)) (and (not (= x75 (x113 (x113 x45 x75) x45))) (not (= (x113 (x113 x45 x10) x45) x10)))))) (or (and (and (and (not (= (x113 (x113 x75 x45) x75) x45)) (and (not (= x10 (x113 (x113 x75 x10) x75))) (not (= (x113 (x113 x75 x75) x75) x75)))) (not (= (x113 (x113 x75 x89) x75) x89))) (not (= (x113 (x113 x75 x32) x75) x32))) (and (not (= x32 (x113 (x113 x10 x32) x10))) (and (and (and (not (= (x113 (x113 x10 x75) x10) x75)) (not (= (x113 (x113 x10 x10) x10) x10))) (not (= x45 (x113 (x113 x10 x45) x10)))) (not (= x89 (x113 (x113 x10 x89) x10)))))))) (and (and (not (= (x113 (x113 x32 x89) x32) x89)) (and (not (= (x113 (x113 x32 x45) x32) x45)) (and (not (= (x113 (x113 x32 x75) x32) x75)) (not (= x10 (x113 (x113 x32 x10) x32)))))) (not (= (x113 (x113 x32 x32) x32) x32)))))
(assert (not (and (= x10 (x113 x32 x32)) (and (and (= (x113 x32 x45) x45) (and (and (= x89 (x113 x32 x10)) (and (= x45 (x113 x89 x32)) (and (and (and (and (= x75 (x113 x89 x10)) (and (and (and (= (x113 x45 x45) x75) (and (= (x113 x45 x75) x10) (and (= x32 (x113 x45 x10)) (and (= (x113 x75 x32) x32) (and (= (x113 x75 x89) x89) (and (= x10 (x113 x75 x45)) (and (= (x113 x75 x75) x75) (and (and (= (x113 x10 x32) x75) (and (= (x113 x10 x89) x32) (and (and (= x10 (x113 x10 x10)) (= x45 (x113 x10 x75))) (= (x113 x10 x45) x89)))) (= (x113 x75 x10) x45))))))))) (= (x113 x45 x89) x45)) (= x89 (x113 x45 x32)))) (= x89 (x113 x89 x75))) (= (x113 x89 x45) x32)) (= x10 (x113 x89 x89))))) (= (x113 x32 x75) x32))) (= (x113 x32 x89) x75)))))
(assert (or (or (and (not (= x32 (x113 x89 (x113 x89 x32)))) (and (not (= (x113 x89 (x113 x89 x89)) x89)) (and (and (not (= x75 (x113 x89 (x113 x89 x75)))) (not (= (x113 x89 (x113 x89 x10)) x10))) (not (= (x113 x89 (x113 x89 x45)) x45))))) (or (or (and (and (and (not (= x45 (x113 x10 (x113 x10 x45)))) (and (not (= x75 (x113 x10 (x113 x10 x75)))) (not (= x10 (x113 x10 (x113 x10 x10)))))) (not (= x89 (x113 x10 (x113 x10 x89))))) (not (= (x113 x10 (x113 x10 x32)) x32))) (and (and (not (= x89 (x113 x75 (x113 x75 x89)))) (and (and (not (= x75 (x113 x75 (x113 x75 x75)))) (not (= (x113 x75 (x113 x75 x10)) x10))) (not (= (x113 x75 (x113 x75 x45)) x45)))) (not (= (x113 x75 (x113 x75 x32)) x32)))) (and (and (not (= (x113 x45 (x113 x45 x89)) x89)) (and (and (not (= x10 (x113 x45 (x113 x45 x10)))) (not (= x75 (x113 x45 (x113 x45 x75))))) (not (= (x113 x45 (x113 x45 x45)) x45)))) (not (= (x113 x45 (x113 x45 x32)) x32))))) (and (not (= (x113 x32 (x113 x32 x32)) x32)) (and (and (and (not (= x75 (x113 x32 (x113 x32 x75)))) (not (= x10 (x113 x32 (x113 x32 x10))))) (not (= x45 (x113 x32 (x113 x32 x45))))) (not (= x89 (x113 x32 (x113 x32 x89))))))))
(assert (let ((x76 (x113 x45 x75)) (x79 (x113 x89 x45)) (x145 (x113 x75 x45)) (x111 (x113 x89 x75)) (x134 (x113 x89 x32)) (x59 (x113 x10 x32)) (x159 (x113 x75 x32)) (x120 (x113 x45 x45)) (x53 (x113 x32 x10)) (x80 (x113 x45 x10)) (x69 (x113 x10 x89)) (x106 (x113 x45 x89)) (x128 (x113 x89 x89)) (x20 (x113 x32 x75)) (x68 (x113 x89 x10)) (x65 (x113 x32 x89)) (x81 (x113 x45 x32)) (x122 (x113 x10 x10)) (x148 (x113 x75 x10)) (x62 (x113 x75 x89)) (x155 (x113 x32 x45)) (x83 (x113 x10 x45)) (x44 (x113 x75 x75)) (x109 (x113 x10 x75)) (x16 (x113 x32 x32))) (and (and (and (and (and (and (and (and (or (or (or (= x122 x45) (or (= x122 x75) (= x122 x10))) (= x89 x122)) (= x122 x32)) (or (= x109 x32) (or (= x89 x109) (or (= x109 x45) (or (= x109 x10) (= x75 x109)))))) (or (or (or (= x83 x45) (or (= x83 x75) (= x10 x83))) (= x89 x83)) (= x32 x83))) (or (or (or (= x45 x69) (or (= x69 x10) (= x69 x75))) (= x69 x89)) (= x69 x32))) (or (= x59 x32) (or (or (= x45 x59) (or (= x75 x59) (= x10 x59))) (= x59 x89)))) (and (or (= x159 x32) (or (= x89 x159) (or (or (= x159 x75) (= x159 x10)) (= x45 x159)))) (and (and (or (or (= x89 x145) (or (= x45 x145) (or (= x145 x75) (= x10 x145)))) (= x32 x145)) (and (or (= x32 x44) (or (= x89 x44) (or (= x45 x44) (or (= x44 x10) (= x44 x75))))) (or (= x148 x32) (or (= x148 x89) (or (= x148 x45) (or (= x148 x10) (= x75 x148))))))) (or (or (= x89 x62) (or (= x45 x62) (or (= x75 x62) (= x10 x62)))) (= x62 x32))))) (and (or (or (or (= x45 x81) (or (= x10 x81) (= x81 x75))) (= x81 x89)) (= x32 x81)) (and (or (= x106 x32) (or (= x89 x106) (or (= x106 x45) (or (= x75 x106) (= x10 x106))))) (and (or (or (= x89 x120) (or (or (= x120 x75) (= x10 x120)) (= x120 x45))) (= x120 x32)) (and (or (or (or (or (= x76 x75) (= x76 x10)) (= x45 x76)) (= x76 x89)) (= x32 x76)) (or (= x32 x80) (or (or (= x80 x45) (or (= x75 x80) (= x80 x10))) (= x89 x80)))))))) (and (and (and (and (or (or (= x89 x111) (or (= x45 x111) (or (= x111 x10) (= x75 x111)))) (= x111 x32)) (or (or (= x89 x68) (or (= x68 x45) (or (= x68 x10) (= x68 x75)))) (= x32 x68))) (or (= x79 x32) (or (= x79 x89) (or (or (= x79 x75) (= x10 x79)) (= x45 x79))))) (or (= x128 x32) (or (or (or (= x128 x75) (= x128 x10)) (= x45 x128)) (= x128 x89)))) (or (= x134 x32) (or (or (= x45 x134) (or (= x134 x10) (= x75 x134))) (= x89 x134))))) (and (and (and (or (or (or (= x45 x155) (or (= x75 x155) (= x10 x155))) (= x89 x155)) (= x32 x155)) (and (or (or (= x89 x53) (or (= x53 x45) (or (= x53 x10) (= x53 x75)))) (= x32 x53)) (or (or (= x89 x20) (or (or (= x20 x10) (= x75 x20)) (= x45 x20))) (= x32 x20)))) (or (= x65 x32) (or (= x89 x65) (or (= x65 x45) (or (= x75 x65) (= x10 x65)))))) (or (= x16 x32) (or (or (or (= x75 x16) (= x16 x10)) (= x16 x45)) (= x89 x16)))))))
(assert (not (and (and (and (= x45 (x113 x32 x45)) (and (and (and (= x75 (x113 x89 x32)) (and (= (x113 x89 x89) x32) (and (and (and (and (and (= (x113 x45 x89) x89) (and (and (= (x113 x45 x75) x10) (and (= (x113 x45 x10) x32) (and (and (= x10 (x113 x75 x89)) (and (= x32 (x113 x75 x45)) (and (= x75 (x113 x75 x75)) (and (= (x113 x75 x10) x45) (and (and (= (x113 x10 x89) x45) (and (= (x113 x10 x45) x89) (and (= x75 (x113 x10 x10)) (= x32 (x113 x10 x75))))) (= (x113 x10 x32) x10)))))) (= x89 (x113 x75 x32))))) (= x75 (x113 x45 x45)))) (= x45 (x113 x45 x32))) (= x89 (x113 x89 x10))) (= (x113 x89 x75) x45)) (= (x113 x89 x45) x10)))) (= x10 (x113 x32 x10))) (= x89 (x113 x32 x75)))) (= (x113 x32 x89) x75)) (= (x113 x32 x32) x32))))
(assert (and (not (= x89 x32)) (and (and (not (= x45 x89)) (and (not (= x75 x32)) (and (not (= x89 x75)) (and (not (= x75 x45)) (and (not (= x10 x32)) (and (not (= x89 x10)) (and (not (= x10 x45)) (not (= x75 x10))))))))) (not (= x32 x45)))))
(assert (or (or (or (= (x113 x45 x45) x45) (or (= x75 (x113 x75 x75)) (= x10 (x113 x10 x10)))) (= x89 (x113 x89 x89))) (= (x113 x32 x32) x32)))
(assert (or (or (or (or (and (not (= (x113 x32 (x113 x10 x32)) x32)) (and (and (and (not (= x75 (x113 x75 (x113 x10 x75)))) (not (= x10 (x113 x10 (x113 x10 x10))))) (not (= (x113 x45 (x113 x10 x45)) x45))) (not (= x89 (x113 x89 (x113 x10 x89)))))) (and (and (not (= x89 (x113 x89 (x113 x75 x89)))) (and (not (= x45 (x113 x45 (x113 x75 x45)))) (and (not (= (x113 x10 (x113 x75 x10)) x10)) (not (= (x113 x75 (x113 x75 x75)) x75))))) (not (= x32 (x113 x32 (x113 x75 x32)))))) (and (not (= (x113 x32 (x113 x45 x32)) x32)) (and (and (and (not (= x10 (x113 x10 (x113 x45 x10)))) (not (= (x113 x75 (x113 x45 x75)) x75))) (not (= (x113 x45 (x113 x45 x45)) x45))) (not (= (x113 x89 (x113 x45 x89)) x89))))) (and (and (not (= x89 (x113 x89 (x113 x89 x89)))) (and (not (= (x113 x45 (x113 x89 x45)) x45)) (and (not (= x75 (x113 x75 (x113 x89 x75)))) (not (= (x113 x10 (x113 x89 x10)) x10))))) (not (= x32 (x113 x32 (x113 x89 x32)))))) (and (not (= (x113 x32 (x113 x32 x32)) x32)) (and (and (not (= (x113 x45 (x113 x32 x45)) x45)) (and (not (= x75 (x113 x75 (x113 x32 x75)))) (not (= (x113 x10 (x113 x32 x10)) x10)))) (not (= x89 (x113 x89 (x113 x32 x89))))))))
(assert (let ((x49 (x113 x32 x10)) (x139 (x113 x75 x10)) (x47 (x113 x32 x45)) (x98 (x113 x45 x32)) (x124 (x113 x45 x45)) (x115 (x113 x10 x89)) (x64 (x113 x45 x75)) (x117 (x113 x10 x10)) (x72 (x113 x10 x45)) (x31 (x113 x75 x89)) (x12 (x113 x89 x89)) (x13 (x113 x75 x32)) (x23 (x113 x45 x10)) (x41 (x113 x75 x45)) (x86 (x113 x10 x32)) (x93 (x113 x10 x75)) (x70 (x113 x89 x10)) (x5 (x113 x32 x89)) (x157 (x113 x45 x89)) (x78 (x113 x89 x75)) (x35 (x113 x75 x75)) (x71 (x113 x32 x75)) (x58 (x113 x89 x32)) (x133 (x113 x89 x45)) (x38 (x113 x32 x32))) (let ((x92 (= x35 x45)) (x125 (= x117 x32)) (x128 (= x71 x10)) (x14 (= x45 x64)) (x144 (= x133 x32)) (x63 (= x78 x32)) (x15 (= x93 x32)) (x36 (= x32 x49)) (x142 (= x45 x86)) (x33 (= x72 x45)) (x131 (= x93 x45)) (x103 (= x75 x38)) (x88 (= x124 x75)) (x7 (= x35 x75)) (x43 (= x12 x45)) (x126 (= x89 x124)) (x44 (= x64 x10)) (x18 (= x41 x32)) (x130 (= x70 x89)) (x110 (= x32 x72)) (x56 (= x13 x32)) (x152 (= x75 x78)) (x77 (= x89 x98)) (x17 (= x78 x45)) (x30 (= x32 x38)) (x132 (= x89 x157)) (x147 (= x12 x32)) (x62 (= x10 x124)) (x94 (= x71 x45)) (x112 (= x71 x32)) (x100 (= x5 x89)) (x29 (= x45 x49)) (x159 (= x70 x10)) (x150 (= x139 x45)) (x101 (= x75 x49)) (x22 (= x157 x75)) (x21 (= x89 x13)) (x155 (= x5 x10)) (x2 (= x89 x49)) (x85 (= x47 x45)) (x158 (= x32 x139)) (x153 (= x32 x124)) (x1 (= x45 x133)) (x97 (= x45 x38)) (x136 (= x70 x32)) (x109 (= x139 x10)) (x40 (= x75 x115)) (x154 (= x58 x32)) (x73 (= x86 x32)) (x66 (= x31 x75)) (x8 (= x45 x124)) (x57 (= x41 x45)) (x104 (= x75 x23)) (x74 (= x115 x89)) (x95 (= x75 x98)) (x79 (= x86 x10)) (x137 (= x75 x133)) (x127 (= x45 x58)) (x61 (= x89 x72)) (x102 (= x45 x117)) (x3 (= x45 x13)) (x149 (= x75 x64)) (x87 (= x31 x89)) (x59 (= x10 x23)) (x148 (= x10 x72)) (x76 (= x78 x10)) (x108 (= x89 x41)) (x105 (= x5 x32)) (x111 (= x10 x49)) (x91 (= x89 x12)) (x55 (= x58 x75)) (x114 (= x32 x47)) (x118 (= x115 x32)) (x120 (= x31 x10)) (x48 (= x75 x86)) (x121 (= x31 x45)) (x50 (= x72 x75)) (x46 (= x89 x47)) (x116 (= x157 x45)) (x119 (= x47 x75)) (x83 (= x93 x10)) (x28 (= x41 x75)) (x20 (= x10 x98)) (x134 (= x13 x10)) (x99 (= x75 x13)) (x69 (= x35 x10)) (x51 (= x98 x45)) (x16 (= x10 x38)) (x122 (= x117 x10)) (x39 (= x23 x32)) (x82 (= x89 x93)) (x90 (= x35 x89)) (x52 (= x89 x86)) (x141 (= x58 x89)) (x107 (= x89 x139)) (x145 (= x10 x41)) (x123 (= x75 x139)) (x156 (= x5 x75)) (x9 (= x32 x31)) (x143 (= x23 x45)) (x25 (= x117 x75)) (x27 (= x32 x35)) (x65 (= x10 x58)) (x11 (= x32 x98)) (x81 (= x10 x157)) (x138 (= x12 x75)) (x53 (= x10 x47)) (x135 (= x89 x133)) (x54 (= x75 x93)) (x67 (= x70 x45)) (x24 (= x32 x157)) (x96 (= x89 x38)) (x42 (= x117 x89)) (x19 (= x89 x64)) (x140 (= x64 x32)) (x80 (= x115 x10)) (x68 (= x10 x12)) (x146 (= x45 x115)) (x106 (= x133 x10)) (x34 (= x75 x71)) (x129 (= x23 x89)) (x151 (= x75 x70)) (x4 (= x45 x5)) (x84 (= x78 x89)) (x26 (= x71 x89))) (and (and (or (or (and x96 x96) (or (or (or (and x26 x21) (and x2 x52)) (and x46 x77)) (and x100 x141))) (or (or (or (or (or (or (and x108 x19) (or (and x82 x107) (and x90 x90))) (and x84 x87)) (and x21 x26)) (or (or (or (or (and x42 x42) (and x107 x82)) (and x61 x129)) (and x130 x74)) (and x2 x52))) (or (or (or (and x126 x126) (or (and x61 x129) (and x108 x19))) (and x132 x135)) (and x46 x77))) (or (and x100 x141) (or (and x91 x91) (or (or (and x87 x84) (and x130 x74)) (and x135 x132)))))) (and (and (or (or (or (or (or (or (and x151 x40) (and x152 x66)) (and x137 x22)) (and x138 x138)) (and x156 x55)) (or (or (or (or (or (and x28 x149) (or (and x7 x7) (and x54 x123))) (and x152 x66)) (and x99 x34)) (or (or (or (or (and x123 x54) (and x25 x25)) (and x104 x50)) (and x40 x151)) (and x101 x48))) (or (or (and x137 x22) (or (or (and x104 x50) (and x28 x149)) (and x88 x88))) (and x95 x119)))) (or (and x103 x103) (or (and x156 x55) (or (or (and x34 x99) (and x101 x48)) (and x95 x119))))) (or (or (and x16 x16) (or (and x155 x65) (or (or (and x79 x111) (and x134 x128)) (and x20 x53)))) (or (or (and x155 x65) (or (and x68 x68) (or (and x106 x81) (or (and x76 x120) (and x80 x159))))) (or (or (or (and x79 x111) (or (or (and x148 x59) (or (and x109 x83) (and x122 x122))) (and x159 x80))) (or (and x134 x128) (or (and x120 x76) (or (or (and x109 x83) (and x69 x69)) (and x44 x145))))) (or (or (or (and x62 x62) (or (and x148 x59) (and x44 x145))) (and x81 x106)) (and x20 x53)))))) (or (or (or (and x4 x127) (or (and x43 x43) (or (or (and x17 x121) (and x146 x67)) (and x1 x116)))) (or (or (or (or (or (or (and x131 x150) (and x102 x102)) (and x33 x143)) (and x146 x67)) (and x29 x142)) (or (and x3 x94) (or (and x121 x17) (or (and x57 x14) (or (and x92 x92) (and x131 x150)))))) (or (and x51 x85) (or (or (or (and x57 x14) (and x143 x33)) (and x8 x8)) (and x116 x1))))) (or (and x97 x97) (or (or (or (and x142 x29) (and x94 x3)) (and x51 x85)) (and x4 x127)))))) (or (or (or (or (or (or (or (or (and x158 x15) (and x27 x27)) (and x140 x18)) (and x9 x63)) (and x112 x56)) (or (and x73 x36) (or (and x136 x118) (or (or (and x158 x15) (and x125 x125)) (and x110 x39))))) (or (and x114 x11) (or (and x24 x144) (or (or (and x110 x39) (and x140 x18)) (and x153 x153))))) (or (or (or (and x24 x144) (or (and x118 x136) (and x63 x9))) (and x147 x147)) (and x105 x154))) (or (and x30 x30) (or (and x105 x154) (or (or (and x36 x73) (and x56 x112)) (and x11 x114)))))))))
(assert (let ((x69 (x113 x89 x89)) (x59 (x113 x32 x32)) (x83 (x113 x45 x45)) (x109 (x113 x75 x75)) (x122 (x113 x10 x10))) (or (and (not (= x32 x59)) (and (not (= x69 x32)) (and (and (not (= x122 x32)) (not (= x32 x109))) (not (= x32 x83))))) (or (or (and (not (= x45 x59)) (and (and (and (not (= x45 x122)) (not (= x109 x45))) (not (= x45 x83))) (not (= x45 x69)))) (or (and (not (= x59 x75)) (and (and (not (= x83 x75)) (and (not (= x109 x75)) (not (= x75 x122)))) (not (= x69 x75)))) (and (and (and (not (= x10 x83)) (and (not (= x10 x122)) (not (= x109 x10)))) (not (= x69 x10))) (not (= x10 x59))))) (and (not (= x89 x59)) (and (not (= x69 x89)) (and (not (= x89 x83)) (and (not (= x122 x89)) (not (= x89 x109))))))))))
(assert (let ((x16 (x113 x32 x32)) (x59 (x113 x32 x10)) (x80 (x113 x10 x45)) (x106 (x113 x89 x45)) (x145 (x113 x45 x75)) (x159 (x113 x32 x75)) (x83 (x113 x45 x10)) (x109 (x113 x75 x10)) (x134 (x113 x32 x89)) (x120 (x113 x45 x45)) (x81 (x113 x32 x45)) (x128 (x113 x89 x89)) (x68 (x113 x10 x89)) (x20 (x113 x75 x32)) (x122 (x113 x10 x10)) (x76 (x113 x75 x45)) (x65 (x113 x89 x32)) (x111 (x113 x75 x89)) (x69 (x113 x89 x10)) (x79 (x113 x45 x89)) (x62 (x113 x89 x75)) (x155 (x113 x45 x32)) (x53 (x113 x10 x32)) (x44 (x113 x75 x75)) (x148 (x113 x10 x75))) (and (and (and (and (and (not (= x155 x65)) (and (and (not (= x65 x20)) (and (and (and (not (= x65 x53)) (and (not (= x53 x20)) (not (= x53 x155)))) (not (= x16 x53))) (not (= x155 x20)))) (not (= x20 x16)))) (not (= x155 x16))) (not (= x65 x16))) (and (and (and (and (not (= x59 x69)) (and (not (= x59 x83)) (and (and (and (not (= x109 x69)) (and (not (= x83 x109)) (and (not (= x59 x122)) (and (not (= x69 x122)) (and (not (= x122 x109)) (not (= x83 x122))))))) (not (= x109 x59))) (not (= x69 x83))))) (and (not (= x62 x159)) (and (not (= x159 x145)) (and (not (= x145 x62)) (and (and (not (= x62 x44)) (and (and (not (= x159 x148)) (and (not (= x148 x62)) (and (not (= x148 x145)) (not (= x44 x148))))) (not (= x145 x44)))) (not (= x159 x44))))))) (and (not (= x106 x81)) (and (and (and (and (and (and (and (not (= x106 x80)) (and (not (= x80 x76)) (not (= x120 x80)))) (not (= x80 x81))) (not (= x76 x120))) (not (= x106 x76))) (not (= x76 x81))) (not (= x106 x120))) (not (= x120 x81))))) (and (not (= x128 x134)) (and (not (= x79 x134)) (and (not (= x128 x79)) (and (and (not (= x128 x111)) (and (and (not (= x134 x68)) (and (not (= x68 x128)) (and (not (= x68 x111)) (not (= x68 x79))))) (not (= x111 x79)))) (not (= x111 x134)))))))) (and (and (and (and (and (and (and (and (and (not (= x44 x111)) (and (not (= x76 x44)) (and (and (not (= x109 x111)) (and (not (= x76 x109)) (not (= x109 x44)))) (not (= x20 x109))))) (not (= x44 x20))) (not (= x111 x76))) (not (= x20 x76))) (not (= x111 x20))) (and (and (and (not (= x68 x80)) (and (not (= x53 x148)) (and (and (and (not (= x122 x53)) (and (and (not (= x80 x122)) (not (= x148 x122))) (not (= x68 x122)))) (not (= x80 x148))) (not (= x68 x148))))) (not (= x53 x80))) (not (= x53 x68)))) (and (and (and (and (and (and (and (and (not (= x83 x79)) (and (not (= x83 x120)) (not (= x83 x145)))) (not (= x83 x155))) (not (= x145 x120))) (not (= x79 x145))) (not (= x145 x155))) (not (= x79 x120))) (not (= x155 x120))) (not (= x155 x79)))) (and (and (not (= x65 x106)) (and (not (= x106 x128)) (and (and (not (= x128 x62)) (and (not (= x62 x106)) (and (not (= x69 x65)) (and (and (not (= x69 x106)) (not (= x62 x69))) (not (= x69 x128)))))) (not (= x65 x62))))) (not (= x128 x65)))) (and (not (= x16 x134)) (and (and (and (and (not (= x159 x134)) (and (not (= x81 x159)) (and (not (= x59 x16)) (and (not (= x59 x134)) (and (not (= x159 x59)) (not (= x81 x59))))))) (not (= x159 x16))) (not (= x81 x134))) (not (= x81 x16))))))))
(assert (let ((x83 (x113 x45 x10)) (x79 (x113 x45 x89)) (x65 (x113 x89 x32)) (x44 (x113 x75 x75)) (x81 (x113 x32 x45)) (x76 (x113 x75 x45)) (x59 (x113 x32 x10)) (x148 (x113 x10 x75)) (x69 (x113 x89 x10)) (x20 (x113 x75 x32)) (x80 (x113 x10 x45)) (x106 (x113 x89 x45)) (x62 (x113 x89 x75)) (x145 (x113 x45 x75)) (x122 (x113 x10 x10)) (x155 (x113 x45 x32)) (x68 (x113 x10 x89)) (x111 (x113 x75 x89)) (x16 (x113 x32 x32)) (x53 (x113 x10 x32)) (x128 (x113 x89 x89)) (x159 (x113 x32 x75)) (x134 (x113 x32 x89)) (x120 (x113 x45 x45)) (x109 (x113 x75 x10))) (or (or (and (and (and (and (not (= (x113 x68 x68) x10)) (not (= (x113 x111 x111) x75))) (not (= (x113 x79 x79) x45))) (not (= x89 (x113 x128 x128)))) (not (= x32 (x113 x134 x134)))) (or (and (and (and (and (not (= x10 (x113 x80 x80))) (not (= (x113 x76 x76) x75))) (not (= x45 (x113 x120 x120)))) (not (= x89 (x113 x106 x106)))) (not (= x32 (x113 x81 x81)))) (or (and (not (= x32 (x113 x159 x159))) (and (not (= (x113 x62 x62) x89)) (and (and (not (= x75 (x113 x44 x44))) (not (= (x113 x148 x148) x10))) (not (= x45 (x113 x145 x145)))))) (and (not (= x32 (x113 x59 x59))) (and (and (and (not (= x10 (x113 x122 x122))) (not (= (x113 x109 x109) x75))) (not (= x45 (x113 x83 x83)))) (not (= (x113 x69 x69) x89))))))) (and (not (= x32 (x113 x16 x16))) (and (not (= (x113 x65 x65) x89)) (and (and (not (= (x113 x20 x20) x75)) (not (= (x113 x53 x53) x10))) (not (= (x113 x155 x155) x45))))))))
(assert (and (and (and (or (= x45 (x113 x32 (x113 x45 x32))) (or (or (or (= x45 (x113 x10 (x113 x45 x10))) (= (x113 x75 (x113 x45 x75)) x45)) (= x45 (x113 x45 (x113 x45 x45)))) (= (x113 x89 (x113 x45 x89)) x45))) (and (or (= x75 (x113 x32 (x113 x75 x32))) (or (= x75 (x113 x89 (x113 x75 x89))) (or (or (= x75 (x113 x10 (x113 x75 x10))) (= (x113 x75 (x113 x75 x75)) x75)) (= x75 (x113 x45 (x113 x75 x45)))))) (or (or (= (x113 x89 (x113 x10 x89)) x10) (or (or (= x10 (x113 x75 (x113 x10 x75))) (= x10 (x113 x10 (x113 x10 x10)))) (= (x113 x45 (x113 x10 x45)) x10))) (= x10 (x113 x32 (x113 x10 x32)))))) (or (or (= x89 (x113 x89 (x113 x89 x89))) (or (= (x113 x45 (x113 x89 x45)) x89) (or (= x89 (x113 x75 (x113 x89 x75))) (= x89 (x113 x10 (x113 x89 x10)))))) (= x89 (x113 x32 (x113 x89 x32))))) (or (= x32 (x113 x32 (x113 x32 x32))) (or (or (= x32 (x113 x45 (x113 x32 x45))) (or (= x32 (x113 x10 (x113 x32 x10))) (= (x113 x75 (x113 x32 x75)) x32))) (= x32 (x113 x89 (x113 x32 x89)))))))
(assert (let ((x59 (x113 x32 x32)) (x83 (x113 x45 x45)) (x122 (x113 x10 x10)) (x109 (x113 x75 x75)) (x69 (x113 x89 x89))) (and (= (x113 x59 x59) x59) (and (= (x113 x69 x69) x69) (and (and (= (x113 x109 x109) x109) (= x122 (x113 x122 x122))) (= x83 (x113 x83 x83)))))))
(check-sat)
(exit)
